NAME: pr107
DIMENSION: 18
EDGE_WEIGHT_TYPE: EUC_2D
NODE_COORD_SECTION
1 8375 4700
2 8775 4700
3 8375 4900
4 8175 4900
5 8775 4900
6 8575 4900
7 8775 5400
8 8375 5450
9 8775 5600
10 8575 5600
11 8375 5650
12 8175 5650
13 8375 6200
14 8775 6200
15 8375 6400
16 8175 6400
17 8775 6400
18 8575 6400
ACCEPTED_PROBABILITIES
0.0
0.81
0.24
0.78
0.39
0.9
0.26
0.38
0.0
0.12
0.56
0.12
0.85
0.94
0.38
0.61
0.22
0.09
OUTSOURCING_COSTS
0.0
52.02
14.75
63.6
19.8
59.54
34.89
11.63
32.48
4.22
96.87
86.84
76.17
81.51
64.32
12.04
23.62
17.57
